n=150;
k_min=3;
k_max=3;
M=[| 346, 500, 153
 | 356, 500, 143
 | 352, 500, 147
 | 363, 484, 151
 | 348, 491, 160
 | 347, 474, 177
 | 357, 483, 158
 | 355, 488, 156
 | 362, 491, 146
 | 360, 488, 151
 | 346, 478, 174
 | 361, 480, 158
 | 359, 490, 150
 | 354, 485, 159
 | 327, 500, 172
 | 337, 467, 195
 | 341, 476, 181
 | 349, 493, 157
 | 350, 466, 182
 | 342, 500, 157
 | 350, 500, 149
 | 348, 490, 160
 | 349, 471, 178
 | 368, 470, 161
 | 362, 500, 137
 | 361, 500, 138
 | 361, 478, 159
 | 350, 490, 159
 | 350, 490, 159
 | 365, 480, 154
 | 365, 485, 149
 | 353, 481, 165
 | 340, 477, 181
 | 336, 475, 187
 | 360, 488, 151
 | 354, 481, 164
 | 347, 474, 178
 | 360, 488, 151
 | 355, 500, 144
 | 353, 490, 155
 | 349, 489, 161
 | 372, 457, 169
 | 356, 487, 155
 | 363, 470, 166
 | 358, 471, 169
 | 361, 490, 148
 | 346, 490, 162
 | 358, 491, 150
 | 346, 484, 169
 | 355, 485, 158
 | 500, 140, 359
 | 463, 194, 341
 | 500, 119, 380
 | 450, 274, 274
 | 457, 185, 356
 | 500, 207, 292
 | 460, 182, 356
 | 500, 328, 171
 | 453, 193, 353
 | 453, 290, 256
 | 463, 317, 218
 | 465, 233, 300
 | 453, 264, 281
 | 486, 178, 335
 | 500, 280, 219
 | 459, 198, 341
 | 472, 222, 304
 | 500, 242, 257
 | 499, 181, 318
 | 467, 276, 255
 | 453, 192, 353
 | 459, 251, 289
 | 455, 176, 368
 | 472, 195, 332
 | 458, 219, 322
 | 450, 206, 342
 | 467, 158, 373
 | 469, 131, 398
 | 481, 197, 321
 | 499, 292, 207
 | 463, 288, 248
 | 469, 295, 235
 | 473, 264, 262
 | 467, 164, 367
 | 463, 236, 299
 | 457, 212, 329
 | 472, 161, 365
 | 476, 205, 318
 | 500, 243, 256
 | 458, 271, 269
 | 471, 242, 285
 | 500, 177, 322
 | 477, 254, 268
 | 487, 327, 184
 | 471, 248, 279
 | 483, 243, 273
 | 483, 239, 277
 | 467, 220, 311
 | 466, 352, 180
 | 479, 248, 272
 | 424, 144, 431
 | 500, 145, 354
 | 426, 73, 500
 | 465, 115, 419
 | 444, 106, 448
 | 386, 113, 500
 | 430, 268, 301
 | 404, 132, 462
 | 448, 111, 440
 | 418, 133, 447
 | 500, 101, 398
 | 500, 96, 403
 | 457, 88, 454
 | 477, 172, 350
 | 458, 169, 372
 | 466, 118, 414
 | 464, 107, 428
 | 388, 159, 452
 | 383, 148, 468
 | 455, 188, 356
 | 447, 87, 465
 | 472, 184, 342
 | 384, 132, 483
 | 461, 160, 377
 | 444, 102, 453
 | 415, 114, 469
 | 455, 175, 368
 | 457, 172, 370
 | 466, 102, 430
 | 422, 119, 458
 | 410, 122, 466
 | 391, 161, 446
 | 462, 106, 431
 | 457, 158, 383
 | 446, 160, 392
 | 411, 126, 462
 | 443, 135, 420
 | 458, 118, 422
 | 458, 182, 358
 | 466, 85, 448
 | 452, 98, 449
 | 500, 83, 416
 | 500, 145, 354
 | 433, 99, 466
 | 443, 110, 445
 | 477, 100, 422
 | 466, 150, 382
 | 478, 109, 411
 | 453, 140, 406
 | 470, 162, 367 |];
 P=[2, 2, 2, 2, 2, 2, 2, 2, 2, 2, 2, 2, 2, 2, 2, 2, 2, 2, 2, 2, 2, 2, 2, 2, 2, 2, 2, 2, 2, 2, 2, 2, 2, 2, 2, 2, 2, 2, 2, 2, 2, 2, 2, 2, 2, 2, 2, 2, 2, 2, 1, 1, 1, 1, 1, 1, 1, 1, 1, 1, 1, 1, 1, 1, 1, 1, 1, 1, 1, 1, 1, 1, 1, 1, 1, 1, 1, 1, 1, 1, 1, 1, 1, 1, 1, 1, 1, 1, 1, 1, 1, 1, 1, 1, 1, 1, 1, 1, 1, 1, 1, 1, 3, 1, 1, 3, 1, 3, 1, 3, 1, 1, 1, 1, 1, 1, 1, 3, 3, 1, 1, 1, 3, 1, 1, 3, 1, 1, 1, 3, 3, 3, 1, 1, 1, 3, 1, 1, 1, 1, 1, 1, 1, 1, 1, 1, 1, 1, 1, 1 ];